45 446
7 9 10 11 14 16 18 19 21 24 25 27 29 35 39 41 42
3 4 5 7 10 11 14 16 18 20 21 23 24 25 26 27 28 29 30 31 34 35 38 43 44
4 5 6 8 10 11 13 14 15 18 19 23 26 28 34 37 39 44
1 4 5 6 9 10 12 13 15 16 18 21 24 26 30 32 34 36 39 41 42 43 44
1 2 3 8 10 17 20 23 26 27 31 36 37 39 41
1 2 3 8 12 13 16 18 19 24 25 26 27 28 31 32 33 35 38 40 44
2 3 8 10 13 14 15 16 18 19 20 21 22 24 25 26 33 34 36 37 41 42
0 1 11 12 13 15 18 24 28 30 31 32 34 35 37 39 40 42 43 44
2 4 5 6 9 12 13 14 19 21 24 25 27 29 30 31 34 36 39 44
0 3 8 10 13 17 18 20 21 22 24 25 29 31 32 33 34 36 37 40 41 43 44
0 1 2 3 4 6 9 13 14 15 19 22 23 26 28 30 31 34 35 36 38 40 41 43 44
0 1 2 7 13 14 15 16 18 20 26 27 33 34 38 42 43
3 5 7 8 13 14 23 26 27 29 32 36 37 38 43
2 3 5 6 7 8 9 10 11 12 16 21 25 26 28 29 33 34 36 40 43 44
0 1 2 6 8 10 11 12 16 19 20 21 22 26 30 31 35 38 39 41 42
2 3 6 7 10 11 16 19 22 24 25 26 27 29 30 31 33 34 35 38 39 40 41
0 1 3 5 6 11 13 14 15 22 24 29 30 36 37 39 40 44
4 9 21 22 25 27 29 33 39 40 44
0 1 2 3 5 6 7 9 11 20 23 27 28 30 31 32 33 35 36 39 40 41 42 43
0 2 5 6 8 10 14 15 21 22 23 24 29 31 36 40 41 42
1 4 6 9 11 14 18 23 24 25 26 27 28 29 30 32 33 34 35 36 39
0 1 3 6 8 9 13 14 17 19 22 24 25 26 28 29 30 32 33 41 43
6 9 10 14 15 16 17 19 21 25 28 29 32 33 35 39 44
1 2 4 10 12 18 19 20 27 32 34 36 40 41 43
0 1 3 5 6 7 8 9 15 16 19 20 21 26 27 30 32 33 39 40 41
0 1 5 6 8 9 13 15 17 20 21 22 26 28 32 34 36 37 41
1 2 3 4 5 6 10 11 12 13 14 15 20 21 24 25 27 30 33 37 39 42 43 44
0 1 4 5 8 11 12 15 17 18 20 23 24 26 28 29 30 37 38 39 40 41 43 44
1 2 5 7 10 13 18 20 21 22 25 27 29 34 38 39 41 42 44
0 1 8 9 12 13 15 16 17 19 20 21 22 27 28 30 32 39 40 41 42 43
1 3 7 8 10 14 15 16 18 20 21 24 26 27 29 31 32 34 35 38 42
1 4 5 7 8 9 10 14 15 18 19 30 38 42 43
3 5 7 9 12 18 20 21 22 23 24 25 29 30 33 35 41 42
5 6 9 11 13 15 17 18 20 21 22 24 26 32 35 38 39 41 42
1 2 3 6 7 8 9 10 11 13 15 20 23 25 28 30 38 39 41 42
0 1 5 7 10 14 15 18 20 22 30 32 33 38 40 41 42 43
3 4 6 8 9 10 12 13 16 18 19 20 23 25 37 39 43
2 4 6 7 9 12 16 25 26 27 36 39 40 41 43 44
1 5 10 11 12 14 15 27 28 30 31 33 34 35 39 41 43
0 2 3 4 7 8 14 15 16 17 18 20 22 24 26 27 28 29 33 34 36 37 38 40 42
5 7 9 10 13 15 16 17 18 19 23 24 27 29 35 37 39 41 44
0 3 4 6 9 10 14 15 18 19 21 23 24 25 27 28 29 32 33 34 35 37 38 40 42 43 44
0 3 6 7 11 14 18 19 26 28 29 30 31 32 33 34 35 39 41 43
1 3 7 9 10 11 12 13 18 21 23 26 27 29 31 35 36 37 38 41 42
1 2 3 5 7 8 9 10 13 16 17 22 26 27 28 37 40 41
